Pd4 Se8
1.0
5.794418 0.000000 0.000000
0.000000 5.945422 0.000000
0.000000 0.000000 8.585061
Pd Se
4 8
direct
0.500000 0.000000 0.500000 Pd
0.000000 0.500000 0.500000 Pd
0.500000 0.500000 0.000000 Pd
0.000000 0.000000 0.000000 Pd
0.611300 0.119356 0.085891 Se
0.111300 0.380644 0.914109 Se
0.388700 0.619356 0.414109 Se
0.888700 0.880644 0.585891 Se
0.111300 0.119356 0.414109 Se
0.611300 0.380644 0.585891 Se
0.888700 0.619356 0.085891 Se
0.388700 0.880644 0.914109 Se
