Pd2 Se4
1.0
5.897202 0.000000 -0.015341
0.000000 5.751231 0.000000
0.000000 0.000000 20.191712
Pd Se
2 4
direct
0.500000 0.000000 0.000000 Pd
0.000000 0.500000 0.000000 Pd
0.381915 0.610351 0.962526 Se
0.881915 0.889649 0.962526 Se
0.618085 0.389649 0.037474 Se
0.118085 0.110351 0.037474 Se
